NAME : local_8
TYPE : ATSP
DIMENSION : 6
EDGE_WEIGHT_TYPE : EXPLICIT
EDGE_WEIGHT_FORMAT : FULL_MATRIX
EDGE_WEIGHT_SECTION
0 678 729 226 978 10000000 
0 0 10000000 783 385 10000000 
0 10000000 0 660 10000000 446 
0 783 660 0 10000000 10000000 
0 385 10000000 10000000 0 10000000 
0 10000000 10000000 10000000 10000000 0 
EOF